; aioredis :: corpus-study/repo_src/aioredis/aioredis/client.py :: LOCK 'PubSub._lock' :: naive encoding (verdict: unsat)
; Generated by snf-pipeline (encoder.py) -- run with any
; SMT-LIB2-compliant solver, e.g. `z3 aioredis__corpus-study_repo_src_aioredis_aioredis_client.py__PubSub._lock__naive.smt2`
; benchmark generated from python API
(set-info :status unknown)
(assert
 false)
(check-sat)
